100
291 98 982 424 208 60 56 169 677 150 41 491 250 998 123 530 774 410 988 478 242 411 37 422 249 890 832 499 32 255 243 209 232 870 142 52 929 566 991 403 901 654 791 745 495 93 211 874 900 925 337 657 800 643 815 529 655 686 269 923 957 75 972 962 669 45 899 128 969 668 61 168 636 570 747 928 219 4 923 14 877 116 810 783 878 551 879 202 672 331 892 774 472 527 27 35 595 489 865 609 
237 104 397 155 67 402 918 801 766 222 537 277 173 107 215 928 829 807 801 194 310 627 732 855 881 87 606 672 506 178 474 90 935 866 548 301 909 573 883 849 509 414 599 432 162 306 813 44 47 627 281 535 472 343 998 196 413 203 633 277 356 747 321 559 905 101 62 229 766 616 238 332 178 460 43 698 896 955 735 960 19 289 967 776 411 944 621 818 294 192 445 137 382 962 332 10 45 170 784 363 
25547
